NAME: western_sahara
TYPE: TSP
COMMENT: 29 cities in Western Sahara
DIMENSION: 29
EDGE_WEIGHT_TYPE: EUC_2D
NODE_COORD_SECTION
1 29.0000 42.0000
2 22.0000 38.0000
3 24.0000 40.0000
4 25.0000 42.0000
5 23.0000 39.0000
6 26.0000 41.0000
7 27.0000 43.0000
8 28.0000 40.0000
9 21.0000 37.0000
10 20.0000 36.0000
11 22.0000 35.0000
12 24.0000 36.0000
13 26.0000 37.0000
14 28.0000 38.0000
15 30.0000 39.0000
16 32.0000 40.0000
17 34.0000 41.0000
18 36.0000 42.0000
19 38.0000 43.0000
20 40.0000 44.0000
21 42.0000 45.0000
22 44.0000 46.0000
23 46.0000 47.0000
24 48.0000 48.0000
25 50.0000 49.0000
26 52.0000 50.0000
27 54.0000 51.0000
28 56.0000 52.0000
29 58.0000 53.0000